sat
( (a_init 0)
  (r_init 0)
  (b_init 2)
  (c_init 0)
  (c_0 (- 1))
  (c_1 0)
  (c_2 (- 1))
  (c_3 1)
  (c_4 (- 1))
  (c_5 0)
  (c_6 0)
  (c_7 2)
  (c_8 0)
  (c_9 (- 1))
  (c_10 (- 1))
  (c_11 1)
  (c_12 0)
  (c_13 0)
  (c_14 2)
  (c_15 4)
  (c_16 0)
  (c_17 (- 4))
  (c_18 0)
  (c_19 0)
  (c_20 (- 1))
  (c_21 0)
  (c_22 1)
  (c_23 0) )
